11116.0 1157907.0 
11126.0 1157008.0 
11221.0 1153362.0 
11191.0 1153546.0 
11089.0 1158736.0 
11158.0 1155007.0 
11060.0 1160254.0 
11014.0 1176216.0 
11144.0 1156867.0 
11017.0 1171240.0 
11168.0 1153651.0 
11243.0 1151316.0 
10990.0 1180743.0 
11102.0 1158159.0 
